(set-logic HORN)

(declare-fun |invariant| ( Bool Bool Bool Int Bool Bool Bool Int Int Int Int Int Bool Bool Int ) Bool)

(assert
  (forall ( (A Bool) (B Bool) (C Bool) (D Int) (E Int) (F Bool) (G Bool) (H Bool) (I Int) (J Bool) (K Bool) (L Int) (M Int) (N Int) (O Int) ) 
    (=>
      (and
        (and (= N 0)
     (= M 0)
     (= L 0)
     (= I 0)
     (= E 0)
     (= D 0)
     (not K)
     (not J)
     (not H)
     (not G)
     (not F)
     (not C)
     (not B)
     (not A)
     (= O 0))
      )
      (invariant K J F D A C B E L M N O H G I)
    )
  )
)
(assert
  (forall ( (A Bool) (B Bool) (C Bool) (D Int) (E Bool) (F Bool) (G Bool) (H Int) (I Int) (J Int) (K Int) (L Int) (M Bool) (N Bool) (O Int) (P Bool) (Q Int) (R Int) (S Bool) (T Bool) (U Int) (V Bool) (W Bool) (X Int) (Y Int) (Z Int) (A1 Int) (B1 Bool) (C1 Bool) (D1 Bool) ) 
    (=>
      (and
        (invariant A B C D E F G H I J K L M N O)
        (let ((a!1 (= X (ite N I (ite M (ite N K I) 0))))
      (a!2 (= A1 (ite N (ite M 0 (ite N L J)) L)))
      (a!3 (= Y (ite N J (ite M 0 (ite N L J)))))
      (a!4 (= Z (ite N (ite M (ite N K I) 0) K)))
      (a!5 (= X (ite N I (ite M (ite N K I) 3))))
      (a!6 (= A1 (ite N (ite M 3 (ite N L J)) L)))
      (a!7 (= Y (ite N J (ite M 3 (ite N L J)))))
      (a!8 (= Z (ite N (ite M (ite N K I) 3) K)))
      (a!9 (= X (ite N I (ite M (ite N K I) 1))))
      (a!10 (= A1 (ite N (ite M 1 (ite N L J)) L)))
      (a!11 (= Y (ite N J (ite M 1 (ite N L J)))))
      (a!12 (= Z (ite N (ite M (ite N K I) 1) K)))
      (a!13 (= X (ite N I (ite M (ite N K I) 2))))
      (a!14 (= A1 (ite N (ite M 2 (ite N L J)) L)))
      (a!15 (= Y (ite N J (ite M 2 (ite N L J)))))
      (a!16 (= Z (ite N (ite M (ite N K I) 2) K)))
      (a!17 (and (= V (not (ite N B A)))
                 (= W N)
                 (= B1 A)
                 (= C1 B)
                 (= D1 C)
                 (= X I)
                 (= A1 L)
                 (= O 1)
                 (= U 2)
                 (= Y J)
                 (= Z K)))
      (a!19 (and (= P G)
                 (= S E)
                 (= T F)
                 (= H 3)
                 (= Q 0)
                 (= R (ite F (ite G L J) (ite G K I))))))
(let ((a!18 (or (and (or (and a!1 a!2 a!3 a!4)
                         (and a!5 a!6 a!7 a!8)
                         (and a!9 a!10 a!11 a!12)
                         (and a!13 a!14 a!15 a!16))
                     (= V M)
                     (= W N)
                     (= B1 A)
                     (= C1 B)
                     (= D1 C)
                     (= O 2)
                     (= U 3))
                (and (= V M)
                     (= W N)
                     (= B1 A)
                     (= C1 B)
                     (= D1 N)
                     (= X I)
                     (= A1 L)
                     (= O 4)
                     (= U 0)
                     (= Y J)
                     (= Z K))
                (and (= V M)
                     (= W N)
                     (= B1 (ite N A M))
                     (= C1 (ite N M B))
                     (= D1 C)
                     (= X I)
                     (= A1 L)
                     (= O 3)
                     (= U 4)
                     (= Y J)
                     (= Z K))
                (and (= V M)
                     (= B1 A)
                     (= C1 B)
                     (= D1 C)
                     (= X I)
                     (= A1 L)
                     (= H 1)
                     (= O 0)
                     (= U 1)
                     (= Y J)
                     (= Z K))
                a!17
                (and (= V M)
                     (= W (not E))
                     (= B1 A)
                     (= C1 B)
                     (= D1 C)
                     (= X I)
                     (= A1 L)
                     (not (= H 1))
                     (= O 0)
                     (= U 1)
                     (= Y J)
                     (= Z K))))
      (a!20 (or a!19
                (and (= P G) (= S G) (= T F) (= H 1) (= Q 2) (= R D))
                (and (not P) (= S E) (= T F) (= H 0) (= O 4) (= Q 1) (= R D))
                (and P (= S E) (= T F) (= H 0) (= O 4) (= Q 1) (= R D))
                (and (not T) (= P G) (= S E) (= H 2) (= O 3) (= Q 3) (= R D))
                (and T (= P G) (= S E) (= H 2) (= O 3) (= Q 3) (= R D))
                (and (= P C)
                     (= S E)
                     (= T F)
                     (= H 0)
                     (not (= O 4))
                     (= Q 1)
                     (= R D))
                (and (= P G)
                     (= S E)
                     (= T (ite G B A))
                     (= H 2)
                     (not (= O 3))
                     (= Q 3)
                     (= R D)))))
  (or (and a!18 (= P G) (= S E) (= T F) (= Q H) (= R D))
      (and a!20
           (= V M)
           (= W N)
           (= B1 A)
           (= C1 B)
           (= D1 C)
           (= X I)
           (= A1 L)
           (= U O)
           (= Y J)
           (= Z K)))))
      )
      (invariant B1 C1 D1 R S T P Q X Y Z A1 V W U)
    )
  )
)
(assert
  (forall ( (A Bool) (B Bool) (C Bool) (D Int) (E Bool) (F Bool) (G Bool) (H Int) (I Int) (J Int) (K Int) (L Int) (M Bool) (N Bool) (O Int) ) 
    (=>
      (and
        (invariant A B C D E F G H I J K L M N O)
        (and (= O 2) (= N G) (= M F) (= H 3))
      )
      false
    )
  )
)

(check-sat)
(exit)
